p cnf 117 413
-3 1 0
-3 2 0
-1 -2 3 0
5 -2 0
5 4 0
2 -4 -5 0
6 5 0
6 -5 0
-7 6 0
-7 1 0
-6 -1 7 0
-10 -8 0
-10 9 0
8 -9 10 0
-10 11 -12 0
10 -11 -12 0
-10 -11 12 0
10 11 12 0
-12 -2 -13 0
12 2 -13 0
-12 2 13 0
12 -2 13 0
14 -7 0
14 13 0
7 -13 -14 0
-3 -14 -15 0
3 14 -15 0
-3 14 15 0
3 -14 15 0
16 -17 -18 0
-16 17 -18 0
16 17 18 0
-16 -17 18 0
9 18 -19 0
-9 -18 -19 0
9 -18 19 0
-9 18 19 0
-19 -10 -20 0
19 10 -20 0
-19 10 20 0
19 -10 20 0
2 -20 -21 0
-2 20 -21 0
2 20 21 0
-2 -20 21 0
-23 -22 0
-23 4 0
22 -4 23 0
-24 11 0
-24 23 0
-11 -23 24 0
-25 5 0
-25 10 0
-5 -10 25 0
-26 24 0
-26 25 0
-24 -25 26 0
21 26 -27 0
-21 -26 -27 0
21 -26 27 0
-21 26 27 0
-28 -15 0
-28 27 0
15 -27 28 0
-9 -29 0
9 -29 0
-19 -16 -30 0
19 16 -30 0
-19 16 30 0
19 -16 30 0
32 9 0
32 -19 0
-9 19 -32 0
-32 -33 0
32 -33 0
34 31 0
34 -33 0
-31 33 -34 0
-30 -34 -35 0
30 34 -35 0
-30 34 35 0
30 -34 35 0
36 -29 0
36 35 0
29 -35 -36 0
37 17 0
37 11 0
-17 -11 -37 0
38 -36 0
38 -37 0
36 37 -38 0
39 26 0
39 9 0
-26 -9 -39 0
40 -38 0
40 -39 0
38 39 -40 0
-41 19 0
-41 20 0
-19 -20 41 0
43 8 0
43 -42 0
-8 42 -43 0
-44 43 0
-44 -19 0
-43 19 44 0
45 41 0
45 44 0
-41 -44 -45 0
-45 -25 -46 0
45 25 -46 0
-45 25 46 0
45 -25 46 0
47 -46 0
47 -43 0
46 43 -47 0
-48 4 0
-48 22 0
-4 -22 48 0
-49 -48 0
-49 32 0
48 -32 49 0
50 9 0
50 -17 0
-9 17 -50 0
50 20 -51 0
-50 -20 -51 0
50 -20 51 0
-50 20 51 0
-52 49 0
-52 51 0
-49 -51 52 0
-50 -9 -53 0
50 9 -53 0
-50 9 53 0
50 -9 53 0
-54 53 0
-54 -18 0
-53 18 54 0
41 -50 -55 0
-41 50 -55 0
41 50 55 0
-41 -50 55 0
56 -54 0
56 -55 0
54 55 -56 0
-57 -52 0
-57 -56 0
52 56 57 0
-58 -30 0
-58 -25 0
30 25 58 0
-59 -57 0
-59 58 0
57 -58 59 0
8 -6 -60 0
-8 6 -60 0
8 6 60 0
-8 -6 60 0
59 60 -61 0
-59 -60 -61 0
59 -60 61 0
-59 60 61 0
62 47 0
62 -61 0
-47 61 -62 0
63 40 0
63 62 0
-40 -62 -63 0
-28 63 -64 0
28 -63 -64 0
-28 -63 64 0
28 63 64 0
-65 -22 0
-65 -32 0
22 32 65 0
45 65 -66 0
-45 -65 -66 0
45 -65 66 0
-45 65 66 0
68 -43 0
68 67 0
43 -67 -68 0
69 66 0
69 -68 0
-66 68 -69 0
-70 -10 -71 0
70 10 -71 0
-70 10 71 0
70 -10 71 0
72 -69 0
72 -71 0
69 71 -72 0
-70 4 -73 0
70 -4 -73 0
-70 -4 73 0
70 4 73 0
-2 -73 -74 0
2 73 -74 0
-2 73 74 0
2 -73 74 0
-75 74 0
-75 17 0
-74 -17 75 0
17 -75 -76 0
-17 75 -76 0
17 75 76 0
-17 -75 76 0
-32 20 -77 0
32 -20 -77 0
-32 -20 77 0
32 20 77 0
78 -23 0
78 -77 0
23 77 -78 0
79 76 0
79 78 0
-76 -78 -79 0
-50 -12 -80 0
50 12 -80 0
-50 12 80 0
50 -12 80 0
-82 2 0
-82 81 0
-2 -81 82 0
-80 -82 -83 0
80 82 -83 0
-80 82 83 0
80 -82 83 0
84 79 0
84 -83 0
-79 83 -84 0
72 84 -85 0
-72 -84 -85 0
72 -84 85 0
-72 84 85 0
-86 -81 0
-86 17 0
81 -17 86 0
-87 -70 0
-87 70 0
-88 -86 0
-88 87 0
86 -87 88 0
-89 16 0
-89 42 0
-16 -42 89 0
89 2 -90 0
-89 -2 -90 0
89 -2 90 0
-89 2 90 0
-42 -44 -91 0
42 44 -91 0
-42 44 91 0
42 -44 91 0
92 -90 0
92 -91 0
90 91 -92 0
-88 -92 -93 0
88 92 -93 0
-88 92 93 0
88 -92 93 0
94 4 0
94 -20 0
-4 20 -94 0
94 12 -95 0
-94 -12 -95 0
94 -12 95 0
-94 12 95 0
93 -95 -96 0
-93 95 -96 0
93 95 96 0
-93 -95 96 0
-97 -41 0
-97 53 0
41 -53 97 0
-53 9 -98 0
53 -9 -98 0
-53 -9 98 0
53 9 98 0
99 97 0
99 -98 0
-97 98 -99 0
100 -10 0
100 94 0
10 -94 -100 0
101 -99 0
101 100 0
99 -100 -101 0
-102 -96 0
-102 -101 0
96 101 102 0
103 -16 0
103 -23 0
16 23 -103 0
-18 -103 -104 0
18 103 -104 0
-18 103 104 0
18 -103 104 0
105 -12 0
105 -65 0
12 65 -105 0
-9 44 -106 0
9 -44 -106 0
-9 -44 106 0
9 44 106 0
107 105 0
107 -106 0
-105 106 -107 0
104 107 -108 0
-104 -107 -108 0
104 -107 108 0
-104 107 108 0
-109 -22 0
-109 -42 0
22 42 109 0
-110 44 0
-110 -21 0
-44 21 110 0
111 -109 0
111 -110 0
109 110 -111 0
108 111 -112 0
-108 -111 -112 0
108 -111 112 0
-108 111 112 0
-44 34 -113 0
44 -34 -113 0
-44 -34 113 0
44 34 113 0
-114 -112 0
-114 113 0
112 -113 114 0
-115 102 0
-115 -114 0
-102 114 115 0
85 115 -116 0
-85 -115 -116 0
85 -115 116 0
-85 115 116 0
117 64 0
117 116 0
-64 -116 -117 0
14 -103 88 40 0
-67 48 39 0
41 -109 0
-17 110 -82 -30 -19 -13 0
-35 16 -89 0
-10 87 13 -89 0
55 8 68 0
-95 -14 10 85 61 0
41 113 18 -83 0
115 87 0
-113 -3 -59 0
49 -2 27 20 -58 -11 0
-82 110 100 -68 -58 0
-64 109 -99 0
-71 -69 21 -59 49 0
46 62 -113 38 0
-46 70 -58 -111 -52 0
-9 -41 100 -99 89 0
113 71 6 -5 25 63 0
-4 -27 45 5 114 0
6 -38 4 76 33 0
6 27 63 -57 24 0
8 44 32 46 109 0
13 54 105 41 0
108 -110 58 105 -31 0
-51 -28 -12 0
-56 -19 -59 -37 -66 0
-29 -45 0
60 19 10 0
-114 -34 0
-5 -113 -18 41 0
59 23 -110 0
-4 -109 -88 -8 -1 31 0
75 102 13 59 -88 0
-15 50 0
65 -86 71 -29 0
-92 35 -111 76 -100 0
-86 -109 25 20 0
-52 -38 10 -35 0
-15 -74 -82 26 88 107 0
104 99 0
-8 20 -109 31 0
3 -6 -112 62 0
96 -31 -91 0
113 72 -46 -93 -106 0
-9 -18 -76 39 112 0
19 60 -51 -35 0
-109 -73 -80 114 0
10 -111 36 -19 98 0
-94 46 0
-99 88 -50 6 108 0
80 -88 104 49 0
12 -67 41 0
-101 63 -72 -92 0
-107 -1 -42 0
59 -8 -46 -75 -45 20 0
2 -87 48 -54 49 0
-108 -71 -69 -83 0
5 -35 -97 20 -38 0
-36 1 -22 47 0
-105 -27 59 0
52 3 0
14 -108 111 -30 79 0
-67 56 35 113 0
-69 -112 105 -48 0
60 75 -26 -25 -61 0
-20 -15 99 4 0
51 -41 -69 -15 0
-56 19 68 -83 65 0
117 0
